(set-info :smt-lib-version 2.6)
(set-logic LRA)
(set-info :source |
   Monniaux, David; Quantifier Elimination by Lazy Model Enumeration, CAV 2010
|)
(set-info :category "random")
; ./Mjollnir_examples/B1/formula_112.m
(set-info :status sat)
(assert
 (forall ((|v9:0| Real) )(exists ((|v8:1| Real) )(forall ((|v7:2| Real) )(exists ((|v6:3| Real) )(forall ((|v5:4| Real) )(exists ((|v4:5| Real) )(forall ((|v3:6| Real) )(exists ((|v2:7| Real) )(forall ((|v1:8| Real) )(exists ((|v0:9| Real) )(let ((?x203 4))
(let ((?x278 (+ (+ (* 5 |v6:3|) (* (- 10) |v6:3|)) (* 18 |v4:5|))))
(let ((?x89 (- 19)))
(let ((?x272 (+ (+ (* 12 |v0:9|) (* (- 1) |v9:0|)) (* 13 |v9:0|))))
(let ((?x123 (- 6)))
(let ((?x266 (+ (+ (* (- 18) |v5:4|) (* 6 |v4:5|)) (* (- 1) |v2:7|))))
(let ((?x157 (- 20)))
(let ((?x259 (+ (+ (* 9 |v0:9|) (* (- 5) |v8:1|)) (* 17 |v6:3|))))
(let (($x281 (or (or (<= ?x259 ?x157) (<= ?x266 ?x123)) (or (<= ?x272 ?x89) (<= ?x278 ?x203)))))
(let ((?x249 (* 12 |v0:9|)))
(let (($x252 (<= (+ (+ (* 20 |v3:6|) (* (- 12) |v4:5|)) ?x249) 9)))
(let ((?x126 15))
(let ((?x31 (- 2)))
(let ((?x187 (* ?x31 |v4:5|)))
(let (($x245 (<= (+ (+ (* 0 |v6:3|) (* (- 15) |v8:1|)) ?x187) ?x126)))
(let ((?x109 (- 4)))
(let ((?x34 (- 15)))
(let ((?x205 (* ?x34 |v3:6|)))
(let (($x239 (<= (+ (+ (* 12 |v6:3|) (* 10 |v6:3|)) ?x205) ?x109)))
(let ((?x231 (+ (+ (* (- 8) |v4:5|) (* 14 |v8:1|)) (* (- 18) |v2:7|))))
(let ((?x168 (- 5)))
(let ((?x220 (* ?x168 |v2:7|)))
(let ((?x23 (- 17)))
(let (($x218 (<= (+ (+ (* (- 8) |v1:8|) |v9:0|) (* (- 10) |v8:1|)) ?x23)))
(let (($x210 (<= (+ (+ ?x205 (* 14 |v0:9|)) (* ?x203 |v7:2|)) (- 14))))
(let (($x204 (<= (+ (+ (* ?x157 |v3:6|) (* ?x31 |v0:9|)) (* 17 |v4:5|)) ?x203)))
(let (($x225 (and (and $x204 $x210) (and $x218 (<= (+ (+ (* (- 8) |v5:4|) ?x220) ?x220) ?x126)))))
(let (($x192 (<= (+ (+ (* (- 12) |v2:7|) ?x187) (* 13 |v3:6|)) (- 16))))
(let ((?x43 (- 13)))
(let ((?x181 (+ (+ (* 16 |v0:9|) (* (- 18) |v3:6|)) (* 6 |v7:2|))))
(let (($x176 (<= (+ (+ (* ?x168 |v6:3|) (* ?x23 |v3:6|)) (* 14 |v3:6|)) ?x157)))
(let (($x283 (or (and (or $x176 (or (<= ?x181 ?x43) $x192)) $x225) (and (and (or (<= ?x231 7) $x239) (and $x245 $x252)) $x281))))
(let ((?x14 (- 10)))
(let (($x162 (<= (+ (+ (* ?x157 |v2:7|) (* ?x123 |v0:9|)) (* 20 |v3:6|)) ?x14)))
(let ((?x154 (+ (+ (* (- 11) |v5:4|) (* 16 |v1:8|)) (* 6 |v0:9|))))
(let (($x146 (<= (+ (+ (* 6 |v3:6|) (* ?x89 |v4:5|)) (* ?x43 |v2:7|)) (- 7))))
(let (($x147 (or (<= (+ (+ |v8:1| (* ?x126 |v7:2|)) (* 19 |v2:7|)) ?x14) $x146)))
(let ((?x79 13))
(let ((?x120 (+ (+ (* 3 |v8:1|) (* (- 18) |v9:0|)) (* ?x109 |v6:3|))))
(let (($x132 (and (<= ?x120 ?x79) (<= (+ (+ (* ?x123 |v4:5|) (* ?x126 |v9:0|)) (* ?x109 |v7:2|)) ?x31))))
(let ((?x111 (+ (+ (* 5 |v5:4|) (* 5 |v7:2|)) (* ?x109 |v4:5|))))
(let ((?x73 10))
(let ((?x98 (+ (+ (* ?x89 |v7:2|) (* 7 |v3:6|)) (* (- 9) |v2:7|))))
(let ((?x86 (+ (+ (* ?x79 |v1:8|) (* 18 |v3:6|)) (* 11 |v9:0|))))
(let (($x76 (<= (+ (+ (* ?x34 |v7:2|) (* 20 |v1:8|)) (* ?x73 |v0:9|)) ?x31)))
(let ((?x64 (+ (+ (* 0 |v3:6|) (* 11 |v3:6|)) (* (- 3) |v6:3|))))
(let (($x101 (or (or (<= ?x64 (- 7)) $x76) (and (<= ?x86 ?x73) (<= ?x98 ?x73)))))
(let ((?x49 (+ (+ (* 20 |v3:6|) (* ?x43 |v5:4|)) (* 16 |v9:0|))))
(let (($x35 (<= (+ (+ (* ?x23 |v4:5|) (* 6 |v4:5|)) (* ?x31 |v2:7|)) ?x34)))
(let (($x20 (<= (+ (+ (* (- 14) |v0:9|) (* ?x14 |v4:5|)) |v9:0|) 3)))
(let (($x166 (and (or (or $x20 (or $x35 (<= ?x49 (- 3)))) $x101) (or (and (<= ?x111 ?x34) $x132) (or $x147 (and (<= ?x154 ?x23) $x162))))))
(and $x166 $x283)))))))))))))))))))))))))))))))))))))))))))))))))))))
)
)
)
)
)
)
)
)
)
)
(check-sat)
(exit)

